%%% static parameters %%%
timespan = 1;
Clients_N = [4000];
Demand_W = [15];
Lt0 = [4];
Lt1 = [4];
SS_ = [0.85];
DS_D = [20];
K = [200];
MA = [500];
HC = [0.05];
%%% dynamic parameters %%%
lost_ratio_sales_ret_th = 0.0004976416001734773;
lost_ratio_sales_ret_w = 47;
lost_ratio_sales_dis_th = 0.00025157892501988114;
lost_ratio_sales_dis_w = 30;
lost_ratio_sales_fac_th = 0.000979071088487171;
lost_ratio_sales_fac_w = 95;
stock_customer_MA_mean_relative_th = 0.8402758764076214;
stock_customer_MA_mean_relative_w = 28;
stock_distributor_MA_mean_relative_th = 0.2998241732399288;
stock_distributor_MA_mean_relative_w = 54;
stock_retailer_MA_mean_relative_th = 0.9706512985628402;
stock_retailer_MA_mean_relative_w = 100;
stock_factory_MA_mean_relative_th = 0.09404481832313016;
stock_factory_MA_mean_relative_w = 81;
